sat
(
  (define-fun inv ((x!0 Int) (x!1 Int) (x!2 Int)) Bool
    (let ((a!1 (not (<= (+ (* 2 x!1) (* (- 1) x!2)) (- 2))))
          (a!2 (not (<= (+ x!0 (* 2 x!1) (* (- 2) x!2)) (- 1)))))
      (and a!1 a!2)))
)
